SAT
-48 -100 -78 1 -17 -96 43 -15 90 87 3 -97 71 -18 -69 -88 -95 -52 -98 83 66 51 -44 16 12 -4 -63 -49 2 -36 22 -38 46 32 -86 -82 76 -60 -85 -37 28 -61 -40 19 41 33 75 -24 -35 72 9 54 -89 -58 50 91 53 -68 -45 -93 -26 -29 -34 -79 -6 -20 -13 27 -62 -81 25 -59 -11 -77 74 57 23 -64 5 -73 -31 92 21 -99 -7 14 -39 -30 55 -10 -42 94 -47 67 70 80 8 84 -56 -65 0
